solution status: optimal solution found
objective value:                                    0
thing.bead_in_hole_y                               12 	(obj:0)
thing.bead_in_hole_z                               14 	(obj:0)
thing.cell_in_hole_y                               13 	(obj:0)
thing.cell_in_hole_z                               11 	(obj:0)
thing.buffer_in_hole_y                             13 	(obj:0)
thing.buffer_in_hole_z                             10 	(obj:0)
thing.wash_in_hole_y                               13 	(obj:0)
thing.wash_in_hole_z                                9 	(obj:0)
thing.lysis_in_hole_y                              10 	(obj:0)
thing.lysis_in_hole_z                               9 	(obj:0)
thing.elute_in_hole_y                              10 	(obj:0)
thing.elute_in_hole_z                              11 	(obj:0)
